NAME: instance_11
TYPE: TSP
COMMENT: 11-city problem
DIMENSION: 11
EDGE_WEIGHT_TYPE: EUC_2D
NODE_COORD_SECTION
0 188 287
1 442 752
2 85 382
3 517 66
4 723 949
5 841 460
6 637 485
7 711 736
8 442 569
9 434 964
10 383 255
EOF
